ACTORES = {Actor1, Actor2, Actor3, Actor4} ;

Escenas = [| 1,1,0,0,0,0,1,10
           | 0,1,1,1,0,1,0,20
           | 0,0,0,0,1,1,1,15
           | 1,1,0,0,1,1,1,13|]; 
           
Duracion = [2,1,1,1,3,4,1];

Disponibilidad =[|Actor1, 7
                 |Actor2, 9
                 |Actor3, 0
                 |Actor4, 12|];

Evitar =[|Actor1, Actor2
         |Actor2, Actor3|];
         

% ----------
% 4 3 6 2 7 5 1 488 6
% ----------
% ==========
% Finished in 507msec.
